Gurobi Optimizer version 10.0.0 build v10.0.0rc2 (win64)

CPU model: Intel(R) Core(TM) i7-9750H CPU @ 2.60GHz, instruction set [SSE2|AVX|AVX2]
Thread count: 6 physical cores, 12 logical processors, using up to 12 threads

Optimize a model with 2018 rows, 4972 columns and 29108 nonzeros
Model fingerprint: 0x04f32c92
Variable types: 0 continuous, 4972 integer (4970 binary)
Coefficient statistics:
  Matrix range     [1e+00, 6e+01]
  Objective range  [1e+00, 1e+00]
  Bounds range     [1e+00, 1e+00]
  RHS range        [1e+00, 1e+00]
Presolve removed 210 rows and 62 columns
Presolve time: 0.08s
Presolved: 1808 rows, 4910 columns, 27080 nonzeros
Variable types: 0 continuous, 4910 integer (4908 binary)
Found heuristic solution: objective 859.0000000

Root relaxation: objective 0.000000e+00, 1933 iterations, 0.10 seconds (0.09 work units)

    Nodes    |    Current Node    |     Objective Bounds      |     Work
 Expl Unexpl |  Obj  Depth IntInf | Incumbent    BestBd   Gap | It/Node Time

     0     0    0.00000    0  288  859.00000    0.00000   100%     -    0s
H    0     0                     480.0000000    0.00000   100%     -    0s
H    0     0                     430.0000000    0.00000   100%     -    0s
     0     0    0.00000    0  466  430.00000    0.00000   100%     -    0s
H    0     0                     380.0000000    0.00000   100%     -    1s
H    0     0                     350.0000000    0.00000   100%     -    1s
H    0     0                     340.0000000    0.00000   100%     -    1s
     0     0    0.00000    0  452  340.00000    0.00000   100%     -    1s
H    0     0                     310.0000000    0.00000   100%     -    2s
H    0     0                     220.0000000    0.00000   100%     -    2s
H    0     0                     170.0000000    0.00000   100%     -    2s
     0     0    0.00000    0  163  170.00000    0.00000   100%     -    2s
     0     0    0.00000    0  188  170.00000    0.00000   100%     -    2s
H    0     0                     159.0000000    0.00000   100%     -    3s
     0     0    0.00000    0  126  159.00000    0.00000   100%     -    3s
H    0     0                     130.0000000    0.00000   100%     -    3s
H    0     0                      70.0000000    0.00000   100%     -    3s
     0     0    0.00000    0  138   70.00000    0.00000   100%     -    3s
     0     0    0.00000    0  144   70.00000    0.00000   100%     -    4s
     0     0    0.00000    0  119   70.00000    0.00000   100%     -    4s
     0     2    0.00000    0  102   70.00000    0.00000   100%     -    4s
     3     8    0.00000    2  147   70.00000    0.00000   100%   687    5s
H   31    38                      40.0000000    0.00000   100%   379    5s
H  611   689                      30.0000000    0.00000   100%   137   10s
H  680   689                      20.0000000    0.00000   100%   132   10s
H  888   710                      10.0000000    0.00000   100%   121   12s
  1473  1701    0.33333  190  118   10.00000    0.00000   100%   101   15s
  2548  2309    0.33333  313  132   10.00000    0.00000   100%  91.0   22s
  4401  3888    0.33333  169  169   10.00000    0.00000   100%  86.3   27s
  4669  3890    1.00000   30  361   10.00000    1.00000  90.0%  87.0   30s

Cutting planes:
  Gomory: 52
  Lift-and-project: 6
  Cover: 121
  Clique: 802
  MIR: 98
  StrongCG: 58
  Flow cover: 138
  GUB cover: 190
  Zero half: 110
  RLT: 77
  Relax-and-lift: 2

Explored 4673 nodes (500763 simplex iterations) in 33.44 seconds (29.56 work units)
Thread count was 12 (of 12 available processors)

Solution count 10: 10 20 30 ... 310

Optimal solution found (tolerance 1.00e-04)
Best objective 1.000000000000e+01, best bound 1.000000000000e+01, gap 0.0000%

User-callback calls 14153, time in user-callback 0.01 sec